p cnf 113 13
-22 36 3 66 -5 -61 4 8 -26 -83 100 0
43 28 -84 -81 -102 -22 111 -113 -3 42 64 0
-15 -64 -2 95 -3 -1 -5 4 -27 -41 47 0
-5 -71 -12 40 3 -25 -88 2 107 98 66 0
-38 -58 -111 20 -5 -19 -12 -22 30 39 1 0
-61 75 -8 29 -4 80 6 -1 11 7 45 0
-10 -2 -44 5 94 15 7 -12 86 38 4 0
79 -6 -18 62 39 -12 -2 -53 -1 -16 -32 0
21 65 31 82 4 50 46 5 -61 -12 -6 0
61 -25 -9 -30 -37 54 -3 -48 -19 6 27 0
-75 62 16 60 6 -3 1 52 91 -34 15 0
19 -7 87 61 -107 5 -50 -4 -110 -2 30 0
39 -8 18 -48 -63 73 103 -1 -55 4 -68 0
